webassembly/ejemplos_dzn/folder11_json_64.dzn
TERM = { '.', 's(2)', 's(5)', 's(4)', 's(9)', 'local_0', 's(8)', 's(6)', 's(1)', 's(0)', 's(7)', 's(3)', 'in_0'};
null = '.';
s = 11;
n = 10;
ndeps = 10;
max_registers_sz = 4;
NR = 1;
registers = [|'local_0', 's(3)'|];
dependencies = [|'call[function_index(0)]_0', 'i32.load16_u_2', |'call[function_index(0)]_0', 'i32.load8_u_4', |'i32.load16_u_2', 'i32.store8_5', |'i32.load8_u_4', 'i32.store8_5', |'i32.store8_5', 'i32.load_6', |'i32.load_6', 'call[function_index(1)]_7', |'call[function_index(1)]_7', 'i32.load8_s_8', |'call[function_index(1)]_7', 'i32.load_9', |'i32.load8_s_8', 'i32.store_10', |'i32.load_9', 'i32.store_10'|];
GET_ENUM = { GET1, GET2, GET3, GET4, GET5};
SET_ENUM = { SET1, SET2, SET3, SET4, SET5};
TEE_ENUM = { TEE1, TEE2, TEE3, TEE4, TEE5};
N = 10;
OP = { 'call[function_index(0)]_0', 'call[function_index(1)]_7', 'i32.const_0', 'i32.load16_u_2', 'i32.load8_u_4', 'i32.store8_5', 'i32.load_6', 'i32.load8_s_8', 'i32.load_9', 'i32.store_10' };
in_ops = [0, 1, 0, 1, 1, 2, 1, 1, 1, 2 ];
out_ops = [3, 1, 1, 1, 1, 0, 1, 1, 1, 0 ];
in1 = ['.', 's(5)', '.', 's(9)', 's(2)', 's(4)', 's(0)', 's(6)', 's(7)', 's(8)' ];
in2 = ['.', '.', '.', '.', '.', 's(1)', '.', '.', '.', 'in_0' ];
in3 = ['.', '.', '.', '.', '.', '.', '.', '.', '.', '.' ];
out1 = ['s(2)', 's(6)', 's(9)', 's(3)', 's(4)', '.', 's(5)', 's(7)', 's(8)', '.' ];
out2 = ['s(1)', '.', '.', '.', '.', '.', '.', '.', '.', '.' ];
out3 = ['s(0)', '.', '.', '.', '.', '.', '.', '.', '.', '.' ];
comm = [false, false, false, false, false, false, false, false, false, false ];
gas = [1, 1, 1, 1, 1, 1, 1, 1, 1, 1 ];
sz = [1, 1, 1, 1, 1, 1, 1, 1, 1, 1 ];
stor = [true, true, false, false, false, true, false, false, false, true ];
lb = [ 1, 1, 1, 1, 1, 1, 1, 1, 1, 1 ];
ub = [ 11, 11, 11, 11, 11, 11, 11, 11, 11, 11 ];
startstack = [ 'in_0', null, null, null, null, null, null, null, null, null ];
endstack = [ null, null, null, null, null, null, null, null, null, null ];
